Mg Al Cu Mg Al Cu Mg Al Cu Mg Al Cu Mg Al Cu Mg Al Cu Mg Al Cu Mg Al Cu Mg Al Cu Mg Al Cu Mg Al Cu Mg Al Cu Mg Al Cu Mg Al Cu Mg Al Cu Mg Al Cu Mg Al Cu Mg Al Cu Mg Al Cu Mg Al Cu Mg Al Cu Mg Al Cu Mg Al Cu Mg Al Cu Mg Al Cu Mg Al Cu Mg Al Cu Mg Al Cu Mg Al Cu Mg Al Cu Mg Al Cu Mg Al Cu Mg Al Cu Mg Al Cu Mg Al Cu Mg Al Cu Mg Al Cu Mg Al Cu Mg Al Cu Mg Al Cu Mg Al Cu Mg Al Cu Mg Al Cu Mg Al Cu Mg Al Cu Mg Al Cu Mg Al Cu Mg Al Cu Mg Al Cu Mg Al Cu Mg Al Cu Mg Al Cu Mg Al Cu Mg Al Cu Mg Al Cu Mg Al Cu Mg Al Cu Mg Al Cu Mg Al Cu Mg Al Cu Mg Al Cu Mg Al Cu Mg Al Cu Mg Al Cu 
 1.0000000000000000
    80.3269950399999999    0.0000000000000000    0.0000000000000048
     0.0000000000000128   80.3269950399999999    0.0000000000000048
     0.0000000000000000    0.0000000000000000   80.3269950399999999
 Mg  Al  Cu  Mg  Al  Cu  Mg  Al  Cu  Mg  Al  Cu  Mg  Al  Cu  Mg  Al  Cu  Mg  Al  Cu  Mg  Al  Cu  Mg  Al  Cu  Mg  Al  Cu  Mg  Al  Cu  Mg  Al  Cu  Mg  Al  Cu  Mg  Al  Cu  Mg  Al  Cu  Mg  Al  Cu  Mg  Al  Cu  Mg  Al  Cu  Mg  Al  Cu  Mg  Al  Cu  Mg  Al  Cu  Mg  Al  Cu  Mg  Al  Cu  Mg  Al  Cu  Mg  Al  Cu  Mg  Al  Cu  Mg  Al  Cu  Mg  Al  Cu  Mg  Al  Cu  Mg  Al  Cu  Mg  Al  Cu  Mg  Al  Cu  Mg  Al  Cu  Mg  Al  Cu  Mg  Al  Cu  Mg  Al  Cu  Mg  Al  Cu  Mg  Al  Cu  Mg  Al  Cu  Mg  Al  Cu  Mg  Al  Cu  Mg  Al  Cu  Mg  Al  Cu  Mg  Al  Cu  Mg  Al  Cu  Mg  Al  Cu  Mg  Al  Cu  Mg  Al  Cu  Mg  Al  Cu  Mg  Al  Cu  Mg  Al  Cu  Mg  Al  Cu  Mg  Al  Cu  Mg  Al  Cu  Mg  Al  Cu  Mg  Al  Cu  Mg  Al  Cu  Mg  Al  Cu  Mg  Al  Cu  Mg  Al  Cu  Mg  Al  Cu  Mg  Al  Cu  Mg  Al  Cu  Mg  Al  Cu 
 176 192  96 176 192  96 176 192  96 176 192  96 176 192  96 176 192  96 176 192  96 176 192  96 176 192  96 176 192  96 176 192  96 176 192  96 176 192  96 176 192  96 176 192  96 176 192  96 176 192  96 176 192  96 176 192  96 176 192  96 176 192  96 176 192  96 176 192  96 176 192  96 176 192  96 176 192  96 176 192  96 176 192  96 176 192  96 176 192  96 176 192  96 176 192  96 176 192  96 176 192  96 176 192  96 176 192  96 176 192  96 176 192  96 176 192  96 176 192  96 176 192  96 176 192  96 176 192  96 176 192  96 176 192  96 176 192  96 176 192  96 176 192  96 176 192  96 176 192  96 176 192  96 176 192  96 176 192  96 176 192  96 176 192  96 176 192  96 176 192  96 176 192  96 176 192  96 176 192  96 176 192  96 176 192  96 176 192  96 176 192  96
Cartesian
  5.0204371900000027 15.0613115700000009 15.0613115700000009
  0.0000000000000000  0.0000000000000000  0.0000000000000000
  5.1463877092303543  1.1956955360274057  1.1956955360274062
  1.1956955360274089 18.8860532239725920 14.9353610507696466
  8.8451788439725956 15.1872620892303551 18.8860532239725956
  5.1463877092303569 18.8860532239725920 18.8860532239725956
  1.1956955360274082 15.1872620892303551 11.2365699160274080
  8.8451788439725938  1.1956955360274057  4.8944866707696466
  1.1956955360274060  1.1956955360274057  5.1463877092303543
  8.8451788439725938  4.8944866707696457  1.1956955360274066
  1.1956955360274066  4.8944866707696457  8.8451788439725956
  8.8451788439725973 18.8860532239725920 15.1872620892303569
  4.8944866707696457  1.1956955360274057  8.8451788439725956
  4.8944866707696484 18.8860532239725920 11.2365699160274080
  9.9149238607696457  3.8247416539725942 13.8656160339725947
  3.8247416539725951  6.2161327260274053 10.1668248992303560
  6.2161327260274071  9.9149238607696457 16.2570071060274088
  9.9149238607696475  6.2161327260274053 16.2570071060274088
  3.8247416539725960  9.9149238607696457 13.8656160339725947
  6.2161327260274062  3.8247416539725942 10.1668248992303560
  3.8247416539725947  3.8247416539725942 19.9557982407696457
  6.2161327260274053  0.1259505192303524 13.8656160339725947
  3.8247416539725942  0.1259505192303524 16.2570071060274053
  6.2161327260274062  6.2161327260274053 19.9557982407696457
  0.1259505192303530  3.8247416539725942 16.2570071060274053
  0.1259505192303534  6.2161327260274053 13.8656160339725947
  6.7112901790905370 16.7521645590905344 13.3704585809094674
  6.7112901790905362 13.3704585809094656 16.7521645590905344
  3.3295842009094687 16.7521645590905344 16.7521645590905344
  3.3295842009094683 13.3704585809094656 13.3704585809094674
  8.3500213909094700 18.3908957709094665 11.7317273690905353
  8.3500213909094683 11.7317273690905335 18.3908957709094665
  1.6908529890905373 18.3908957709094665 18.3908957709094665
  1.6908529890905362 11.7317273690905335 11.7317273690905353
  6.9042256472413994  3.1366487327586019 13.1775231127586032
  3.1366487327586028  6.9042256472413985 13.1775231127586032
  6.9042256472413994  6.9042256472413985 16.9451000272413985
  3.1366487327586023  3.1366487327586019 16.9451000272413985
  8.1570859227586006  1.8837884572413981  1.8837884572413988
  1.8837884572414010 18.1979603027586023 11.9246628372413994
  8.1570859227586041 18.1979603027586023 18.1979603027586023
  1.8837884572413983  1.8837884572413981  8.1570859227586023
  5.0204371900000009  5.0204371900000000 15.0613115700000009
  0.0000000000000000  0.0000000000000000 10.0408743800000000
  5.0204371900000009  5.0204371900000000  5.0204371900000009
  0.0000000000000016 10.0408743800000000 10.0408743800000000
  5.1463877092303560 11.2365699160274062 11.2365699160274080
  1.1956955360274071  8.8451788439725920  4.8944866707696484
  8.8451788439725938  5.1463877092303516  8.8451788439725938
  5.1463877092303560  8.8451788439725920  8.8451788439725938
  1.1956955360274066  5.1463877092303516  1.1956955360274082
  8.8451788439725956 11.2365699160274062 14.9353610507696466
  1.1956955360274075 11.2365699160274062 15.1872620892303569
  8.8451788439725956 14.9353610507696448 11.2365699160274080
  1.1956955360274082 14.9353610507696448 18.8860532239725956
  8.8451788439725956  8.8451788439725920  5.1463877092303534
  4.8944866707696475 11.2365699160274062 18.8860532239725956
  4.8944866707696475  8.8451788439725920  1.1956955360274086
  9.9149238607696475 13.8656160339725929  3.8247416539725938
  3.8247416539725969 16.2570071060274053  0.1259505192303536
  6.2161327260274089 19.9557982407696457  6.2161327260274089
  9.9149238607696475 16.2570071060274053  6.2161327260274089
  3.8247416539725974 19.9557982407696457  3.8247416539725938
  6.2161327260274071 13.8656160339725929  0.1259505192303536
  3.8247416539725965 13.8656160339725929  9.9149238607696493
  6.2161327260274071 10.1668248992303525  3.8247416539725934
  3.8247416539725960 10.1668248992303525  6.2161327260274089
  6.2161327260274080 16.2570071060274053  9.9149238607696493
  0.1259505192303546 13.8656160339725929  6.2161327260274089
  0.1259505192303550 16.2570071060274053  3.8247416539725934
  6.7112901790905353  6.7112901790905344  3.3295842009094669
  6.7112901790905353  3.3295842009094661  6.7112901790905344
  3.3295842009094669  6.7112901790905344  6.7112901790905344
  3.3295842009094665  3.3295842009094661  3.3295842009094665
  8.3500213909094683  8.3500213909094665  1.6908529890905353
  8.3500213909094665  1.6908529890905344  8.3500213909094665
  1.6908529890905357  8.3500213909094665  8.3500213909094665
  1.6908529890905346  1.6908529890905344  1.6908529890905346
  6.9042256472414003 13.1775231127586032  3.1366487327586032
  3.1366487327586046 16.9451000272413985  3.1366487327586032
  6.9042256472414012 16.9451000272413985  6.9042256472414003
  3.1366487327586041 13.1775231127586032  6.9042256472413994
  8.1570859227586023 11.9246628372413976 11.9246628372413994
  1.8837884572413994  8.1570859227586006  1.8837884572413988
  8.1570859227586023  8.1570859227586006  8.1570859227586023
  1.8837884572414001 11.9246628372413976 18.1979603027586023
  5.0204371900000027 15.0613115700000009  5.0204371900000009
  0.0000000000000016 10.0408743800000000  0.0000000000000006
 15.0613115700000026 15.0613115700000009  5.0204371900000018
 10.0408743800000000  0.0000000000000000 10.0408743800000000
 15.1872620892303551  1.1956955360274057 11.2365699160274080
 11.2365699160274097 18.8860532239725920  4.8944866707696493
 18.8860532239725956 15.1872620892303551  8.8451788439725938
 15.1872620892303587 18.8860532239725920  8.8451788439725938
 11.2365699160274080 15.1872620892303551  1.1956955360274093
 18.8860532239725920  1.1956955360274057 14.9353610507696466
 11.2365699160274062  1.1956955360274057 15.1872620892303569
 18.8860532239725920  4.8944866707696457 11.2365699160274080
 11.2365699160274062  4.8944866707696457 18.8860532239725956
 18.8860532239725956 18.8860532239725920  5.1463877092303543
 14.9353610507696448  1.1956955360274057 18.8860532239725956
 14.9353610507696484 18.8860532239725920  1.1956955360274097
 19.9557982407696457  3.8247416539725942  3.8247416539725938
 13.8656160339725947  6.2161327260274053  0.1259505192303536
 16.2570071060274053  9.9149238607696457  6.2161327260274089
 19.9557982407696457  6.2161327260274053  6.2161327260274089
 13.8656160339725947  9.9149238607696457  3.8247416539725938
 16.2570071060274053  3.8247416539725942  0.1259505192303536
 13.8656160339725929  3.8247416539725942  9.9149238607696493
 16.2570071060274053  0.1259505192303524  3.8247416539725934
 13.8656160339725929  0.1259505192303524  6.2161327260274089
 16.2570071060274053  6.2161327260274053  9.9149238607696493
 10.1668248992303525  3.8247416539725942  6.2161327260274089
 10.1668248992303543  6.2161327260274053  3.8247416539725934
 16.7521645590905379 16.7521645590905344  3.3295842009094678
 16.7521645590905379 13.3704585809094656  6.7112901790905362
 13.3704585809094691 16.7521645590905344  6.7112901790905362
 13.3704585809094674 13.3704585809094656  3.3295842009094674
 18.3908957709094700 18.3908957709094665  1.6908529890905366
 18.3908957709094700 11.7317273690905335  8.3500213909094683
 11.7317273690905370 18.3908957709094665  8.3500213909094683
 11.7317273690905353 11.7317273690905335  1.6908529890905357
 16.9451000272413985  3.1366487327586019  3.1366487327586032
 13.1775231127586050  6.9042256472413985  3.1366487327586032
 16.9451000272413985  6.9042256472413985  6.9042256472414003
 13.1775231127586032  3.1366487327586019  6.9042256472413994
 18.1979603027586023  1.8837884572413981 11.9246628372413994
 11.9246628372414012 18.1979603027586023  1.8837884572413999
 18.1979603027586059 18.1979603027586023  8.1570859227586041
 11.9246628372413976  1.8837884572413981 18.1979603027586023
 15.0613115700000009  5.0204371900000000  5.0204371900000009
 10.0408743800000000  0.0000000000000000  0.0000000000000006
 15.0613115700000009  5.0204371900000000 15.0613115700000009
 10.0408743800000018 10.0408743800000000  0.0000000000000012
 15.1872620892303569 11.2365699160274062  1.1956955360274073
 11.2365699160274080  8.8451788439725920 14.9353610507696466
 18.8860532239725920  5.1463877092303516 18.8860532239725956
 15.1872620892303569  8.8451788439725920 18.8860532239725956
 11.2365699160274062  5.1463877092303516 11.2365699160274080
 18.8860532239725956 11.2365699160274062  4.8944866707696475
 11.2365699160274080 11.2365699160274062  5.1463877092303552
 18.8860532239725956 14.9353610507696448  1.1956955360274077
 11.2365699160274080 14.9353610507696448  8.8451788439725956
 18.8860532239725920  8.8451788439725920 15.1872620892303569
 14.9353610507696466 11.2365699160274062  8.8451788439725956
 14.9353610507696466  8.8451788439725920 11.2365699160274080
 19.9557982407696493 13.8656160339725929 13.8656160339725947
 13.8656160339725947 16.2570071060274053 10.1668248992303578
 16.2570071060274088 19.9557982407696457 16.2570071060274088
 19.9557982407696493 16.2570071060274053 16.2570071060274088
 13.8656160339725965 19.9557982407696457 13.8656160339725947
 16.2570071060274088 13.8656160339725929 10.1668248992303578
 13.8656160339725947 13.8656160339725929 19.9557982407696457
 16.2570071060274053 10.1668248992303525 13.8656160339725947
 13.8656160339725947 10.1668248992303525 16.2570071060274088
 16.2570071060274088 16.2570071060274053 19.9557982407696457
 10.1668248992303543 13.8656160339725929 16.2570071060274088
 10.1668248992303543 16.2570071060274053 13.8656160339725947
 16.7521645590905344  6.7112901790905344 13.3704585809094674
 16.7521645590905344  3.3295842009094661 16.7521645590905344
 13.3704585809094674  6.7112901790905344 16.7521645590905344
 13.3704585809094656  3.3295842009094661 13.3704585809094674
 18.3908957709094665  8.3500213909094665 11.7317273690905353
 18.3908957709094665  1.6908529890905344 18.3908957709094665
 11.7317273690905353  8.3500213909094665 18.3908957709094665
 11.7317273690905335  1.6908529890905344 11.7317273690905353
 16.9451000272414021 13.1775231127586032 13.1775231127586050
 13.1775231127586068 16.9451000272413985 13.1775231127586050
 16.9451000272414021 16.9451000272413985 16.9451000272413985
 13.1775231127586050 13.1775231127586032 16.9451000272413985
 18.1979603027586059 11.9246628372413976  1.8837884572413999
 11.9246628372413994  8.1570859227586006 11.9246628372413994
 18.1979603027586023  8.1570859227586006 18.1979603027586023
 11.9246628372413994 11.9246628372413976  8.1570859227586023
 15.0613115700000026 15.0613115700000009 15.0613115700000026
 10.0408743800000018 10.0408743800000000 10.0408743800000018
  5.9787702210121036 12.1762005633974599 14.1029785389878999
  2.1353261833974631 16.0196446010121001 14.1029785389878999
  5.9787702210121045 16.0196446010121001 17.9464225766025400
  5.9787702210121045 17.9464225766025400 16.0196446010121036
  2.1353261833974626 14.1029785389878981 16.0196446010121036
  5.9787702210121045 14.1029785389878981 12.1762005633974617
  4.0621041589878990 12.1762005633974599 16.0196446010121036
  7.9055481966025418 16.0196446010121001 16.0196446010121036
  4.0621041589878999 16.0196446010121001 12.1762005633974617
  4.0621041589878999 17.9464225766025400 14.1029785389878999
  7.9055481966025418 14.1029785389878981 14.1029785389878999
  4.0621041589878999 14.1029785389878981 17.9464225766025400
  9.0825413489879008 12.9259853866025392  0.9583330310121035
  2.8851110066025423 19.1234157289878972  0.9583330310121035
  9.0825413489879026 19.1234157289878972  7.1557633733974626
  9.0825413489879008  7.1557633733974608 19.1234157289879008
  2.8851110066025392  0.9583330310121022 19.1234157289878972
  9.0825413489878990  0.9583330310121022 12.9259853866025392
  0.9583330310121043 12.9259853866025392  9.0825413489878990
  7.1557633733974635 19.1234157289878972  9.0825413489878990
  0.9583330310121052 19.1234157289878972  2.8851110066025405
  0.9583330310121033  7.1557633733974608 10.9992074110121028
  7.1557633733974608  0.9583330310121022 10.9992074110121028
  0.9583330310121023  0.9583330310121022 17.1966377533974608
  5.9566168892543940  7.8401635287711340 14.1251318707456086
  7.8401635287711349  5.9566168892543931 14.1251318707456086
  5.9566168892543940  5.9566168892543931 12.2415852312288660
  5.9566168892543931  2.2007108512288656 15.9974912692543931
  7.8401635287711349  4.0842574907456077 15.9974912692543931
  5.9566168892543940  4.0842574907456077 17.8810379087711375
  4.0842574907456086  7.8401635287711340 15.9974912692543931
  2.2007108512288664  5.9566168892543931 15.9974912692543931
  4.0842574907456086  5.9566168892543931 17.8810379087711375
  4.0842574907456077  2.2007108512288656 14.1251318707456086
  2.2007108512288660  4.0842574907456077 14.1251318707456086
  4.0842574907456086  4.0842574907456077 12.2415852312288660
  9.1046946807456113 17.2620224212288633  0.9361796992543941
  7.2211480412288687 19.1455690607456077  0.9361796992543941
  9.1046946807456113 19.1455690607456077  2.8197263387711340
  9.1046946807456077  2.8197263387711327 19.1455690607456077
  7.2211480412288660  0.9361796992543926 19.1455690607456077
  9.1046946807456077  0.9361796992543926 17.2620224212288669
  0.9361796992543954 17.2620224212288633  9.1046946807456077
  2.8197263387711358 19.1455690607456077  9.1046946807456077
  0.9361796992543956 19.1455690607456077  7.2211480412288669
  0.9361796992543930  2.8197263387711327 10.9770540792543922
  2.8197263387711327  0.9361796992543926 10.9770540792543922
  0.9361796992543927  0.9361796992543926 12.8606007187711349
  5.9787702210121019  2.1353261833974604  4.0621041589878981
  2.1353261833974613  5.9787702210121019  4.0621041589878981
  5.9787702210121028  5.9787702210121019  7.9055481966025400
  5.9787702210121028  7.9055481966025392  5.9787702210121028
  2.1353261833974608  4.0621041589878972  5.9787702210121019
  5.9787702210121028  4.0621041589878972  2.1353261833974613
  4.0621041589878972  2.1353261833974604  5.9787702210121019
  7.9055481966025400  5.9787702210121019  5.9787702210121028
  4.0621041589878981  5.9787702210121019  2.1353261833974613
  4.0621041589878981  7.9055481966025392  4.0621041589878981
  7.9055481966025400  4.0621041589878972  4.0621041589878981
  4.0621041589878981  4.0621041589878972  7.9055481966025400
  9.0825413489878990  2.8851110066025392 10.9992074110121028
  2.8851110066025405  9.0825413489878990 10.9992074110121028
  9.0825413489879008  9.0825413489878990 17.1966377533974608
  9.0825413489879026 17.1966377533974608  9.0825413489878990
  2.8851110066025409 10.9992074110121010  9.0825413489878990
  9.0825413489879008 10.9992074110121010  2.8851110066025405
  0.9583330310121027  2.8851110066025392 19.1234157289878972
  7.1557633733974626  9.0825413489878990 19.1234157289879008
  0.9583330310121037  9.0825413489878990 12.9259853866025392
  0.9583330310121050 17.1966377533974608  0.9583330310121033
  7.1557633733974626 10.9992074110121010  0.9583330310121033
  0.9583330310121040 10.9992074110121010  7.1557633733974617
  5.9566168892543958 17.8810379087711340  4.0842574907456086
  7.8401635287711366 15.9974912692543914  4.0842574907456086
  5.9566168892543958 15.9974912692543914  2.2007108512288687
  5.9566168892543949 12.2415852312288642  5.9566168892543940
  7.8401635287711366 14.1251318707456086  5.9566168892543940
  5.9566168892543958 14.1251318707456086  7.8401635287711331
  4.0842574907456104 17.8810379087711340  5.9566168892543940
  2.2007108512288682 15.9974912692543914  5.9566168892543940
  4.0842574907456104 15.9974912692543914  7.8401635287711331
  4.0842574907456095 12.2415852312288642  4.0842574907456086
  2.2007108512288678 14.1251318707456086  4.0842574907456086
  4.0842574907456104 14.1251318707456086  2.2007108512288687
  9.1046946807456095  7.2211480412288678 10.9770540792543922
  7.2211480412288678  9.1046946807456077 10.9770540792543922
  9.1046946807456095  9.1046946807456077 12.8606007187711349
  9.1046946807456095 12.8606007187711331  9.1046946807456077
  7.2211480412288678 10.9770540792543922  9.1046946807456077
  9.1046946807456095 10.9770540792543922  7.2211480412288696
  0.9361796992543937  7.2211480412288678 19.1455690607456077
  2.8197263387711340  9.1046946807456077 19.1455690607456077
  0.9361796992543940  9.1046946807456077 17.2620224212288669
  0.9361796992543946 12.8606007187711331  0.9361796992543934
  2.8197263387711344 10.9770540792543922  0.9361796992543934
  0.9361796992543944 10.9770540792543922  2.8197263387711331
 16.0196446010121036 12.1762005633974599  4.0621041589878990
 12.1762005633974617 16.0196446010121001  4.0621041589878990
 16.0196446010121036 16.0196446010121001  7.9055481966025409
 16.0196446010121036 17.9464225766025400  5.9787702210121036
 12.1762005633974617 14.1029785389878981  5.9787702210121036
 16.0196446010121036 14.1029785389878981  2.1353261833974622
 14.1029785389878999 12.1762005633974599  5.9787702210121036
 17.9464225766025436 16.0196446010121001  5.9787702210121036
 14.1029785389878999 16.0196446010121001  2.1353261833974622
 14.1029785389879017 17.9464225766025400  4.0621041589878999
 17.9464225766025436 14.1029785389878981  4.0621041589878999
 14.1029785389878999 14.1029785389878981  7.9055481966025409
 19.1234157289879008 12.9259853866025392 10.9992074110121045
 12.9259853866025427 19.1234157289878972 10.9992074110121045
 19.1234157289879008 19.1234157289878972 17.1966377533974644
 19.1234157289878972  7.1557633733974608  9.0825413489878990
 12.9259853866025392  0.9583330310121022  9.0825413489878990
 19.1234157289878972  0.9583330310121022  2.8851110066025405
 10.9992074110121028 12.9259853866025392 19.1234157289879008
 17.1966377533974644 19.1234157289878972 19.1234157289879008
 10.9992074110121045 19.1234157289878972 12.9259853866025409
 10.9992074110121028  7.1557633733974608  0.9583330310121033
 17.1966377533974608  0.9583330310121022  0.9583330310121033
 10.9992074110121010  0.9583330310121022  7.1557633733974617
 15.9974912692543931  7.8401635287711340  4.0842574907456086
 17.8810379087711340  5.9566168892543931  4.0842574907456086
 15.9974912692543931  5.9566168892543931  2.2007108512288687
 15.9974912692543914  2.2007108512288656  5.9566168892543940
 17.8810379087711340  4.0842574907456077  5.9566168892543940
 15.9974912692543914  4.0842574907456077  7.8401635287711331
 14.1251318707456104  7.8401635287711340  5.9566168892543940
 12.2415852312288660  5.9566168892543931  5.9566168892543940
 14.1251318707456104  5.9566168892543931  7.8401635287711331
 14.1251318707456086  2.2007108512288656  4.0842574907456086
 12.2415852312288642  4.0842574907456077  4.0842574907456086
 14.1251318707456086  4.0842574907456077  2.2007108512288687
 19.1455690607456113 17.2620224212288633 10.9770540792543940
 17.2620224212288669 19.1455690607456077 10.9770540792543940
 19.1455690607456113 19.1455690607456077 12.8606007187711349
 19.1455690607456077  2.8197263387711327  9.1046946807456077
 17.2620224212288633  0.9361796992543926  9.1046946807456077
 19.1455690607456077  0.9361796992543926  7.2211480412288696
 10.9770540792543958 17.2620224212288633 19.1455690607456113
 12.8606007187711366 19.1455690607456077 19.1455690607456113
 10.9770540792543958 19.1455690607456077 17.2620224212288669
 10.9770540792543922  2.8197263387711327  0.9361796992543934
 12.8606007187711331  0.9361796992543926  0.9361796992543934
 10.9770540792543922  0.9361796992543926  2.8197263387711331
 16.0196446010121001  2.1353261833974604 14.1029785389878999
 12.1762005633974617  5.9787702210121019 14.1029785389878999
 16.0196446010121001  5.9787702210121019 17.9464225766025400
 16.0196446010121001  7.9055481966025392 16.0196446010121036
 12.1762005633974599  4.0621041589878972 16.0196446010121036
 16.0196446010121001  4.0621041589878972 12.1762005633974617
 14.1029785389878981  2.1353261833974604 16.0196446010121036
 17.9464225766025400  5.9787702210121019 16.0196446010121036
 14.1029785389878999  5.9787702210121019 12.1762005633974617
 14.1029785389878999  7.9055481966025392 14.1029785389878999
 17.9464225766025400  4.0621041589878972 14.1029785389878999
 14.1029785389878981  4.0621041589878972 17.9464225766025400
 19.1234157289878972  2.8851110066025392  0.9583330310121035
 12.9259853866025409  9.0825413489878990  0.9583330310121035
 19.1234157289878972  9.0825413489878990  7.1557633733974626
 19.1234157289879008 17.1966377533974608 19.1234157289879008
 12.9259853866025409 10.9992074110121010 19.1234157289879008
 19.1234157289878972 10.9992074110121010 12.9259853866025409
 10.9992074110121010  2.8851110066025392  9.0825413489878990
 17.1966377533974608  9.0825413489878990  9.0825413489878990
 10.9992074110121028  9.0825413489878990  2.8851110066025405
 10.9992074110121045 17.1966377533974608 10.9992074110121028
 17.1966377533974608 10.9992074110121010 10.9992074110121028
 10.9992074110121028 10.9992074110121010 17.1966377533974608
 15.9974912692543949 17.8810379087711340 14.1251318707456104
 17.8810379087711375 15.9974912692543914 14.1251318707456104
 15.9974912692543931 15.9974912692543914 12.2415852312288660
 15.9974912692543931 12.2415852312288642 15.9974912692543931
 17.8810379087711375 14.1251318707456086 15.9974912692543931
 15.9974912692543931 14.1251318707456086 17.8810379087711375
 14.1251318707456122 17.8810379087711340 15.9974912692543931
 12.2415852312288660 15.9974912692543914 15.9974912692543931
 14.1251318707456104 15.9974912692543914 17.8810379087711375
 14.1251318707456104 12.2415852312288642 14.1251318707456104
 12.2415852312288660 14.1251318707456086 14.1251318707456104
 14.1251318707456104 14.1251318707456086 12.2415852312288660
 19.1455690607456077  7.2211480412288678  0.9361796992543941
 17.2620224212288633  9.1046946807456077  0.9361796992543941
 19.1455690607456077  9.1046946807456077  2.8197263387711340
 19.1455690607456113 12.8606007187711331 19.1455690607456113
 17.2620224212288633 10.9770540792543922 19.1455690607456113
 19.1455690607456077 10.9770540792543922 17.2620224212288669
 10.9770540792543940  7.2211480412288678  9.1046946807456077
 12.8606007187711349  9.1046946807456077  9.1046946807456077
 10.9770540792543940  9.1046946807456077  7.2211480412288669
 10.9770540792543940 12.8606007187711331 10.9770540792543940
 12.8606007187711349 10.9770540792543922 10.9770540792543940
 10.9770540792543940 10.9770540792543922 12.8606007187711366
  5.0542103738383393 18.3496297017085865  1.7321190582914157
  8.3087553217085865 18.3496297017085865  4.9866640061616652
  8.3087553217085848 15.0950847538383357  1.7321190582914157
  5.0542103738383366  1.7321190582914143 18.3496297017085865
  8.3087553217085865  1.7321190582914143 15.0950847538383357
  8.3087553217085865  4.9866640061616634 18.3496297017085865
  4.9866640061616661 18.3496297017085865  8.3087553217085848
  1.7321190582914172 18.3496297017085865  5.0542103738383375
  1.7321190582914168 15.0950847538383357  8.3087553217085848
  4.9866640061616634  1.7321190582914143 11.7729934382914134
  1.7321190582914145  1.7321190582914143 15.0275383861616643
  1.7321190582914152  4.9866640061616634 11.7729934382914134
 10.0071011961616669 16.7934306282914143  3.2883181317085857
  6.7525562482914170 16.7934306282914143  0.0337731838383360
  6.7525562482914179 20.0479755761616651  3.2883181317085857
 10.0071011961616634  3.2883181317085857 16.7934306282914143
  6.7525562482914152  3.2883181317085857 20.0479755761616651
  6.7525562482914143  0.0337731838383346 16.7934306282914143
  0.0337731838383373 16.7934306282914143  6.7525562482914152
  3.2883181317085866 16.7934306282914143 10.0071011961616652
  3.2883181317085888 20.0479755761616651  6.7525562482914152
  0.0337731838383351  3.2883181317085857 13.3291925117085857
  3.2883181317085861  3.2883181317085839 10.0746475638383348
  3.2883181317085839  0.0337731838383346 13.3291925117085874
  5.0542103738383375  8.3087553217085830 11.7729934382914134
  8.3087553217085848  8.3087553217085830 15.0275383861616660
  8.3087553217085830  5.0542103738383339 11.7729934382914134
  5.0542103738383384 11.7729934382914134  8.3087553217085848
  8.3087553217085883 11.7729934382914134  5.0542103738383357
  8.3087553217085883 15.0275383861616643  8.3087553217085848
  4.9866640061616643  8.3087553217085830 18.3496297017085865
  1.7321190582914157  8.3087553217085830 15.0950847538383357
  1.7321190582914152  5.0542103738383339 18.3496297017085865
  4.9866640061616652 11.7729934382914134  1.7321190582914172
  1.7321190582914161 11.7729934382914134  4.9866640061616661
  1.7321190582914168 15.0275383861616643  1.7321190582914172
 10.0071011961616652  6.7525562482914161 13.3291925117085857
  6.7525562482914152  6.7525562482914161 10.0746475638383366
  6.7525562482914161 10.0071011961616652 13.3291925117085857
 10.0071011961616652 13.3291925117085874  6.7525562482914179
  6.7525562482914161 13.3291925117085874 10.0071011961616669
  6.7525562482914161 10.0746475638383348  6.7525562482914179
  0.0337731838383357  6.7525562482914161 16.7934306282914143
  3.2883181317085848  6.7525562482914161 20.0479755761616651
  3.2883181317085874 10.0071011961616652 16.7934306282914143
  0.0337731838383367 13.3291925117085874  3.2883181317085848
  3.2883181317085879 13.3291925117085839  0.0337731838383356
  3.2883181317085857 10.0746475638383348  3.2883181317085848
 15.0950847538383393 18.3496297017085865 11.7729934382914152
 18.3496297017085865 18.3496297017085865 15.0275383861616660
 18.3496297017085865 15.0950847538383357 11.7729934382914152
 15.0950847538383357  1.7321190582914143  8.3087553217085848
 18.3496297017085865  1.7321190582914143  5.0542103738383357
 18.3496297017085865  4.9866640061616634  8.3087553217085848
 15.0275383861616678 18.3496297017085865 18.3496297017085865
 11.7729934382914170 18.3496297017085865 15.0950847538383375
 11.7729934382914152 15.0950847538383357 18.3496297017085865
 15.0275383861616643  1.7321190582914143  1.7321190582914172
 11.7729934382914134  1.7321190582914143  4.9866640061616661
 11.7729934382914134  4.9866640061616634  1.7321190582914172
 20.0479755761616687 16.7934306282914143 13.3291925117085874
 16.7934306282914179 16.7934306282914143 10.0746475638383366
 16.7934306282914179 20.0479755761616651 13.3291925117085874
 20.0479755761616651  3.2883181317085857  6.7525562482914179
 16.7934306282914143  3.2883181317085857 10.0071011961616669
 16.7934306282914143  0.0337731838383346  6.7525562482914179
 10.0746475638383384 16.7934306282914143 16.7934306282914143
 13.3291925117085874 16.7934306282914143 20.0479755761616651
 13.3291925117085910 20.0479755761616651 16.7934306282914143
 10.0746475638383348  3.2883181317085857  3.2883181317085848
 13.3291925117085874  3.2883181317085839  0.0337731838383356
 13.3291925117085839  0.0337731838383346  3.2883181317085848
 15.0950847538383375  8.3087553217085830  1.7321190582914157
 18.3496297017085830  8.3087553217085830  4.9866640061616652
 18.3496297017085830  5.0542103738383339  1.7321190582914157
 15.0950847538383375 11.7729934382914134 18.3496297017085901
 18.3496297017085901 11.7729934382914134 15.0950847538383375
 18.3496297017085901 15.0275383861616643 18.3496297017085901
 15.0275383861616660  8.3087553217085830  8.3087553217085848
 11.7729934382914152  8.3087553217085830  5.0542103738383375
 11.7729934382914134  5.0542103738383339  8.3087553217085848
 15.0275383861616660 11.7729934382914134 11.7729934382914152
 11.7729934382914152 11.7729934382914134 15.0275383861616660
 11.7729934382914152 15.0275383861616643 11.7729934382914152
 20.0479755761616651  6.7525562482914161  3.2883181317085857