Mg176 Al192 Cu96
1.0
  20.0817487600000000    0.0000000000000000    0.0000000000000012
   0.0000000000000032   20.0817487600000000    0.0000000000000012
   0.0000000000000000    0.0000000000000000   20.0817487600000000
Mg Al Cu
176 192 96
direct
   0.2500000000000000    0.7500000000000000    0.7500000000000000 Mg
   0.0000000000000000    0.0000000000000000    0.0000000000000000 Mg
   0.2562718899999999    0.0595414049999999    0.0595414049999999 Mg
   0.0595414049999999    0.9404585950000001    0.7437281100000001 Mg
   0.4404585950000001    0.7562718899999999    0.9404585950000001 Mg
   0.2562718899999999    0.9404585950000001    0.9404585950000001 Mg
   0.0595414049999999    0.7562718899999999    0.5595414049999999 Mg
   0.4404585950000001    0.0595414049999999    0.2437281100000001 Mg
   0.0595414049999999    0.0595414049999999    0.2562718899999999 Mg
   0.4404585950000001    0.2437281100000001    0.0595414049999999 Mg
   0.0595414049999999    0.2437281100000001    0.4404585950000001 Mg
   0.4404585950000001    0.9404585950000001    0.7562718899999999 Mg
   0.2437281100000001    0.0595414049999999    0.4404585950000001 Mg
   0.2437281100000001    0.9404585950000001    0.5595414049999999 Mg
   0.4937281100000001    0.1904585950000001    0.6904585950000001 Mg
   0.1904585950000001    0.3095414049999999    0.5062718899999999 Mg
   0.3095414049999999    0.4937281100000001    0.8095414049999999 Mg
   0.4937281100000001    0.3095414049999999    0.8095414049999999 Mg
   0.1904585950000001    0.4937281100000001    0.6904585950000001 Mg
   0.3095414049999999    0.1904585950000001    0.5062718899999999 Mg
   0.1904585950000001    0.1904585950000001    0.9937281100000001 Mg
   0.3095414049999999    0.0062718899999998    0.6904585950000001 Mg
   0.1904585950000001    0.0062718899999998    0.8095414049999999 Mg
   0.3095414049999999    0.3095414049999999    0.9937281100000001 Mg
   0.0062718899999998    0.1904585950000001    0.8095414049999999 Mg
   0.0062718899999998    0.3095414049999999    0.6904585950000001 Mg
   0.3341984933333333    0.8341984933333333    0.6658015066666667 Mg
   0.3341984933333333    0.6658015066666667    0.8341984933333333 Mg
   0.1658015066666667    0.8341984933333333    0.8341984933333333 Mg
   0.1658015066666667    0.6658015066666667    0.6658015066666667 Mg
   0.4158015066666667    0.9158015066666667    0.5841984933333333 Mg
   0.4158015066666667    0.5841984933333333    0.9158015066666667 Mg
   0.0841984933333333    0.9158015066666667    0.9158015066666667 Mg
   0.0841984933333333    0.5841984933333333    0.5841984933333333 Mg
   0.3438059966666667    0.1561940033333333    0.6561940033333333 Mg
   0.1561940033333333    0.3438059966666667    0.6561940033333333 Mg
   0.3438059966666667    0.3438059966666667    0.8438059966666667 Mg
   0.1561940033333333    0.1561940033333333    0.8438059966666667 Mg
   0.4061940033333333    0.0938059966666667    0.0938059966666667 Mg
   0.0938059966666667    0.9061940033333333    0.5938059966666667 Mg
   0.4061940033333333    0.9061940033333333    0.9061940033333333 Mg
   0.0938059966666667    0.0938059966666667    0.4061940033333333 Mg
   0.2500000000000000    0.2500000000000000    0.7500000000000000 Mg
   0.0000000000000000    0.0000000000000000    0.5000000000000000 Mg
   0.2500000000000000    0.2500000000000000    0.2500000000000000 Mg
   0.0000000000000000    0.5000000000000000    0.5000000000000000 Mg
   0.2562718899999999    0.5595414049999999    0.5595414049999999 Mg
   0.0595414049999999    0.4404585950000000    0.2437281100000002 Mg
   0.4404585950000001    0.2562718899999998    0.4404585950000000 Mg
   0.2562718899999999    0.4404585950000000    0.4404585950000000 Mg
   0.0595414049999999    0.2562718899999998    0.0595414050000000 Mg
   0.4404585950000001    0.5595414049999999    0.7437281100000001 Mg
   0.0595414049999999    0.5595414049999999    0.7562718899999999 Mg
   0.4404585950000001    0.7437281100000001    0.5595414049999999 Mg
   0.0595414049999999    0.7437281100000001    0.9404585950000001 Mg
   0.4404585950000001    0.4404585950000000    0.2562718899999998 Mg
   0.2437281100000001    0.5595414049999999    0.9404585950000001 Mg
   0.2437281100000001    0.4404585950000000    0.0595414050000000 Mg
   0.4937281100000001    0.6904585950000001    0.1904585950000000 Mg
   0.1904585950000001    0.8095414049999999    0.0062718899999998 Mg
   0.3095414049999999    0.9937281100000001    0.3095414050000000 Mg
   0.4937281100000001    0.8095414049999999    0.3095414050000000 Mg
   0.1904585950000001    0.9937281100000001    0.1904585950000000 Mg
   0.3095414049999999    0.6904585950000001    0.0062718899999998 Mg
   0.1904585950000001    0.6904585950000001    0.4937281100000002 Mg
   0.3095414049999999    0.5062718899999998    0.1904585950000000 Mg
   0.1904585950000001    0.5062718899999998    0.3095414050000000 Mg
   0.3095414049999999    0.8095414049999999    0.4937281100000002 Mg
   0.0062718899999998    0.6904585950000001    0.3095414050000000 Mg
   0.0062718899999998    0.8095414049999999    0.1904585950000000 Mg
   0.3341984933333333    0.3341984933333333    0.1658015066666667 Mg
   0.3341984933333333    0.1658015066666667    0.3341984933333333 Mg
   0.1658015066666667    0.3341984933333333    0.3341984933333333 Mg
   0.1658015066666667    0.1658015066666667    0.1658015066666667 Mg
   0.4158015066666667    0.4158015066666667    0.0841984933333333 Mg
   0.4158015066666667    0.0841984933333333    0.4158015066666667 Mg
   0.0841984933333333    0.4158015066666667    0.4158015066666667 Mg
   0.0841984933333333    0.0841984933333333    0.0841984933333333 Mg
   0.3438059966666667    0.6561940033333333    0.1561940033333333 Mg
   0.1561940033333333    0.8438059966666667    0.1561940033333333 Mg
   0.3438059966666667    0.8438059966666667    0.3438059966666667 Mg
   0.1561940033333333    0.6561940033333333    0.3438059966666667 Mg
   0.4061940033333333    0.5938059966666667    0.5938059966666667 Mg
   0.0938059966666667    0.4061940033333333    0.0938059966666667 Mg
   0.4061940033333333    0.4061940033333333    0.4061940033333333 Mg
   0.0938059966666667    0.5938059966666667    0.9061940033333333 Mg
   0.2500000000000000    0.7500000000000000    0.2500000000000000 Mg
   0.0000000000000000    0.5000000000000000    0.0000000000000000 Mg
   0.7500000000000000    0.7500000000000000    0.2500000000000000 Mg
   0.5000000000000000    0.0000000000000000    0.5000000000000000 Mg
   0.7562718899999999    0.0595414049999999    0.5595414049999999 Mg
   0.5595414049999999    0.9404585950000001    0.2437281100000002 Mg
   0.9404585950000001    0.7562718899999999    0.4404585950000000 Mg
   0.7562718899999999    0.9404585950000001    0.4404585950000000 Mg
   0.5595414049999999    0.7562718899999999    0.0595414050000000 Mg
   0.9404585950000001    0.0595414049999999    0.7437281100000001 Mg
   0.5595414049999999    0.0595414049999999    0.7562718899999999 Mg
   0.9404585950000001    0.2437281100000001    0.5595414049999999 Mg
   0.5595414049999999    0.2437281100000001    0.9404585950000001 Mg
   0.9404585950000001    0.9404585950000001    0.2562718899999998 Mg
   0.7437281100000001    0.0595414049999999    0.9404585950000001 Mg
   0.7437281100000001    0.9404585950000001    0.0595414050000000 Mg
   0.9937281100000001    0.1904585950000001    0.1904585950000000 Mg
   0.6904585950000001    0.3095414049999999    0.0062718899999998 Mg
   0.8095414049999999    0.4937281100000001    0.3095414050000000 Mg
   0.9937281100000001    0.3095414049999999    0.3095414050000000 Mg
   0.6904585950000001    0.4937281100000001    0.1904585950000000 Mg
   0.8095414049999999    0.1904585950000001    0.0062718899999998 Mg
   0.6904585950000001    0.1904585950000001    0.4937281100000002 Mg
   0.8095414049999999    0.0062718899999998    0.1904585950000000 Mg
   0.6904585950000001    0.0062718899999998    0.3095414050000000 Mg
   0.8095414049999999    0.3095414049999999    0.4937281100000002 Mg
   0.5062718899999998    0.1904585950000001    0.3095414050000000 Mg
   0.5062718899999998    0.3095414049999999    0.1904585950000000 Mg
   0.8341984933333333    0.8341984933333333    0.1658015066666667 Mg
   0.8341984933333333    0.6658015066666667    0.3341984933333333 Mg
   0.6658015066666667    0.8341984933333333    0.3341984933333333 Mg
   0.6658015066666667    0.6658015066666667    0.1658015066666667 Mg
   0.9158015066666667    0.9158015066666667    0.0841984933333333 Mg
   0.9158015066666667    0.5841984933333333    0.4158015066666667 Mg
   0.5841984933333333    0.9158015066666667    0.4158015066666667 Mg
   0.5841984933333333    0.5841984933333333    0.0841984933333333 Mg
   0.8438059966666667    0.1561940033333333    0.1561940033333333 Mg
   0.6561940033333333    0.3438059966666667    0.1561940033333333 Mg
   0.8438059966666667    0.3438059966666667    0.3438059966666667 Mg
   0.6561940033333333    0.1561940033333333    0.3438059966666667 Mg
   0.9061940033333333    0.0938059966666667    0.5938059966666667 Mg
   0.5938059966666667    0.9061940033333333    0.0938059966666667 Mg
   0.9061940033333333    0.9061940033333333    0.4061940033333333 Mg
   0.5938059966666667    0.0938059966666667    0.9061940033333333 Mg
   0.7500000000000000    0.2500000000000000    0.2500000000000000 Mg
   0.5000000000000000    0.0000000000000000    0.0000000000000000 Mg
   0.7500000000000000    0.2500000000000000    0.7500000000000000 Mg
   0.5000000000000000    0.5000000000000000    0.0000000000000000 Mg
   0.7562718899999999    0.5595414049999999    0.0595414049999999 Mg
   0.5595414049999999    0.4404585950000000    0.7437281100000001 Mg
   0.9404585950000001    0.2562718899999998    0.9404585950000001 Mg
   0.7562718899999999    0.4404585950000000    0.9404585950000001 Mg
   0.5595414049999999    0.2562718899999998    0.5595414049999999 Mg
   0.9404585950000001    0.5595414049999999    0.2437281100000001 Mg
   0.5595414049999999    0.5595414049999999    0.2562718899999999 Mg
   0.9404585950000001    0.7437281100000001    0.0595414049999999 Mg
   0.5595414049999999    0.7437281100000001    0.4404585950000001 Mg
   0.9404585950000001    0.4404585950000000    0.7562718899999999 Mg
   0.7437281100000001    0.5595414049999999    0.4404585950000001 Mg
   0.7437281100000001    0.4404585950000000    0.5595414049999999 Mg
   0.9937281100000001    0.6904585950000001    0.6904585950000001 Mg
   0.6904585950000001    0.8095414049999999    0.5062718899999999 Mg
   0.8095414049999999    0.9937281100000001    0.8095414049999999 Mg
   0.9937281100000001    0.8095414049999999    0.8095414049999999 Mg
   0.6904585950000001    0.9937281100000001    0.6904585950000001 Mg
   0.8095414049999999    0.6904585950000001    0.5062718899999999 Mg
   0.6904585950000001    0.6904585950000001    0.9937281100000001 Mg
   0.8095414049999999    0.5062718899999998    0.6904585950000001 Mg
   0.6904585950000001    0.5062718899999998    0.8095414049999999 Mg
   0.8095414049999999    0.8095414049999999    0.9937281100000001 Mg
   0.5062718899999998    0.6904585950000001    0.8095414049999999 Mg
   0.5062718899999998    0.8095414049999999    0.6904585950000001 Mg
   0.8341984933333333    0.3341984933333333    0.6658015066666667 Mg
   0.8341984933333333    0.1658015066666667    0.8341984933333333 Mg
   0.6658015066666667    0.3341984933333333    0.8341984933333333 Mg
   0.6658015066666667    0.1658015066666667    0.6658015066666667 Mg
   0.9158015066666667    0.4158015066666667    0.5841984933333333 Mg
   0.9158015066666667    0.0841984933333333    0.9158015066666667 Mg
   0.5841984933333333    0.4158015066666667    0.9158015066666667 Mg
   0.5841984933333333    0.0841984933333333    0.5841984933333333 Mg
   0.8438059966666667    0.6561940033333333    0.6561940033333333 Mg
   0.6561940033333333    0.8438059966666667    0.6561940033333333 Mg
   0.8438059966666667    0.8438059966666667    0.8438059966666667 Mg
   0.6561940033333333    0.6561940033333333    0.8438059966666667 Mg
   0.9061940033333333    0.5938059966666667    0.0938059966666667 Mg
   0.5938059966666667    0.4061940033333333    0.5938059966666667 Mg
   0.9061940033333333    0.4061940033333333    0.9061940033333333 Mg
   0.5938059966666667    0.5938059966666667    0.4061940033333333 Mg
   0.7500000000000000    0.7500000000000000    0.7500000000000000 Mg
   0.5000000000000000    0.5000000000000000    0.5000000000000000 Mg
   0.2977215925000001    0.6063316850000000    0.7022784074999999 Al
   0.1063316850000000    0.7977215925000001    0.7022784074999999 Al
   0.2977215925000001    0.7977215925000001    0.8936683150000000 Al
   0.2977215925000001    0.8936683150000000    0.7977215925000001 Al
   0.1063316850000000    0.7022784074999999    0.7977215925000001 Al
   0.2977215925000001    0.7022784074999999    0.6063316850000000 Al
   0.2022784074999999    0.6063316850000000    0.7977215925000001 Al
   0.3936683150000000    0.7977215925000001    0.7977215925000001 Al
   0.2022784074999999    0.7977215925000001    0.6063316850000000 Al
   0.2022784074999999    0.8936683150000000    0.7022784074999999 Al
   0.3936683150000000    0.7022784074999999    0.7022784074999999 Al
   0.2022784074999999    0.7022784074999999    0.8936683150000000 Al
   0.4522784074999999    0.6436683150000000    0.0477215925000001 Al
   0.1436683150000000    0.9522784074999999    0.0477215925000001 Al
   0.4522784074999999    0.9522784074999999    0.3563316850000000 Al
   0.4522784074999999    0.3563316850000000    0.9522784074999999 Al
   0.1436683150000000    0.0477215925000001    0.9522784074999999 Al
   0.4522784074999999    0.0477215925000001    0.6436683150000000 Al
   0.0477215925000001    0.6436683150000000    0.4522784074999999 Al
   0.3563316850000000    0.9522784074999999    0.4522784074999999 Al
   0.0477215925000001    0.9522784074999999    0.1436683150000000 Al
   0.0477215925000001    0.3563316850000000    0.5477215925000001 Al
   0.3563316850000000    0.0477215925000001    0.5477215925000001 Al
   0.0477215925000001    0.0477215925000001    0.8563316850000000 Al
   0.2966184350000001    0.3904123899999999    0.7033815649999999 Al
   0.3904123899999999    0.2966184350000001    0.7033815649999999 Al
   0.2966184350000001    0.2966184350000001    0.6095876100000001 Al
   0.2966184350000001    0.1095876100000001    0.7966184350000001 Al
   0.3904123899999999    0.2033815649999999    0.7966184350000001 Al
   0.2966184350000001    0.2033815649999999    0.8904123899999999 Al
   0.2033815649999999    0.3904123899999999    0.7966184350000001 Al
   0.1095876100000001    0.2966184350000001    0.7966184350000001 Al
   0.2033815649999999    0.2966184350000001    0.8904123899999999 Al
   0.2033815649999999    0.1095876100000001    0.7033815649999999 Al
   0.1095876100000001    0.2033815649999999    0.7033815649999999 Al
   0.2033815649999999    0.2033815649999999    0.6095876100000001 Al
   0.4533815649999999    0.8595876100000001    0.0466184350000001 Al
   0.3595876100000001    0.9533815649999999    0.0466184350000001 Al
   0.4533815649999999    0.9533815649999999    0.1404123899999998 Al
   0.4533815649999999    0.1404123899999998    0.9533815649999999 Al
   0.3595876100000001    0.0466184350000001    0.9533815649999999 Al
   0.4533815649999999    0.0466184350000001    0.8595876100000001 Al
   0.0466184350000001    0.8595876100000001    0.4533815649999999 Al
   0.1404123899999998    0.9533815649999999    0.4533815649999999 Al
   0.0466184350000001    0.9533815649999999    0.3595876100000001 Al
   0.0466184350000001    0.1404123899999998    0.5466184350000001 Al
   0.1404123899999998    0.0466184350000001    0.5466184350000001 Al
   0.0466184350000001    0.0466184350000001    0.6404123899999999 Al
   0.2977215925000001    0.1063316850000000    0.2022784074999999 Al
   0.1063316850000000    0.2977215925000001    0.2022784074999999 Al
   0.2977215925000001    0.2977215925000001    0.3936683150000000 Al
   0.2977215925000001    0.3936683150000000    0.2977215925000001 Al
   0.1063316850000000    0.2022784074999999    0.2977215925000001 Al
   0.2977215925000001    0.2022784074999999    0.1063316850000000 Al
   0.2022784074999999    0.1063316850000000    0.2977215925000001 Al
   0.3936683150000000    0.2977215925000001    0.2977215925000001 Al
   0.2022784074999999    0.2977215925000001    0.1063316850000000 Al
   0.2022784074999999    0.3936683150000000    0.2022784074999999 Al
   0.3936683150000000    0.2022784074999999    0.2022784074999999 Al
   0.2022784074999999    0.2022784074999999    0.3936683150000000 Al
   0.4522784074999999    0.1436683150000000    0.5477215925000001 Al
   0.1436683150000000    0.4522784074999999    0.5477215925000001 Al
   0.4522784074999999    0.4522784074999999    0.8563316850000000 Al
   0.4522784074999999    0.8563316850000000    0.4522784074999999 Al
   0.1436683150000000    0.5477215925000001    0.4522784074999999 Al
   0.4522784074999999    0.5477215925000001    0.1436683150000000 Al
   0.0477215925000001    0.1436683150000000    0.9522784074999999 Al
   0.3563316850000000    0.4522784074999999    0.9522784074999999 Al
   0.0477215925000001    0.4522784074999999    0.6436683150000000 Al
   0.0477215925000001    0.8563316850000000    0.0477215925000001 Al
   0.3563316850000000    0.5477215925000001    0.0477215925000001 Al
   0.0477215925000001    0.5477215925000001    0.3563316850000000 Al
   0.2966184350000001    0.8904123899999999    0.2033815649999999 Al
   0.3904123899999999    0.7966184350000001    0.2033815649999999 Al
   0.2966184350000001    0.7966184350000001    0.1095876100000002 Al
   0.2966184350000001    0.6095876100000001    0.2966184350000001 Al
   0.3904123899999999    0.7033815649999999    0.2966184350000001 Al
   0.2966184350000001    0.7033815649999999    0.3904123899999998 Al
   0.2033815649999999    0.8904123899999999    0.2966184350000001 Al
   0.1095876100000001    0.7966184350000001    0.2966184350000001 Al
   0.2033815649999999    0.7966184350000001    0.3904123899999998 Al
   0.2033815649999999    0.6095876100000001    0.2033815649999999 Al
   0.1095876100000001    0.7033815649999999    0.2033815649999999 Al
   0.2033815649999999    0.7033815649999999    0.1095876100000002 Al
   0.4533815649999999    0.3595876100000002    0.5466184350000001 Al
   0.3595876100000001    0.4533815649999999    0.5466184350000001 Al
   0.4533815649999999    0.4533815649999999    0.6404123899999998 Al
   0.4533815649999999    0.6404123899999998    0.4533815649999999 Al
   0.3595876100000001    0.5466184350000001    0.4533815649999999 Al
   0.4533815649999999    0.5466184350000001    0.3595876100000002 Al
   0.0466184350000001    0.3595876100000002    0.9533815649999999 Al
   0.1404123899999998    0.4533815649999999    0.9533815649999999 Al
   0.0466184350000001    0.4533815649999999    0.8595876100000001 Al
   0.0466184350000001    0.6404123899999998    0.0466184350000001 Al
   0.1404123899999998    0.5466184350000001    0.0466184350000001 Al
   0.0466184350000001    0.5466184350000001    0.1404123899999998 Al
   0.7977215925000001    0.6063316850000000    0.2022784074999999 Al
   0.6063316850000000    0.7977215925000001    0.2022784074999999 Al
   0.7977215925000001    0.7977215925000001    0.3936683150000000 Al
   0.7977215925000001    0.8936683150000000    0.2977215925000001 Al
   0.6063316850000000    0.7022784074999999    0.2977215925000001 Al
   0.7977215925000001    0.7022784074999999    0.1063316850000000 Al
   0.7022784074999999    0.6063316850000000    0.2977215925000001 Al
   0.8936683150000000    0.7977215925000001    0.2977215925000001 Al
   0.7022784074999999    0.7977215925000001    0.1063316850000000 Al
   0.7022784074999999    0.8936683150000000    0.2022784074999999 Al
   0.8936683150000000    0.7022784074999999    0.2022784074999999 Al
   0.7022784074999999    0.7022784074999999    0.3936683150000000 Al
   0.9522784074999999    0.6436683150000000    0.5477215925000001 Al
   0.6436683150000000    0.9522784074999999    0.5477215925000001 Al
   0.9522784074999999    0.9522784074999999    0.8563316850000000 Al
   0.9522784074999999    0.3563316850000000    0.4522784074999999 Al
   0.6436683150000000    0.0477215925000001    0.4522784074999999 Al
   0.9522784074999999    0.0477215925000001    0.1436683150000000 Al
   0.5477215925000001    0.6436683150000000    0.9522784074999999 Al
   0.8563316850000000    0.9522784074999999    0.9522784074999999 Al
   0.5477215925000001    0.9522784074999999    0.6436683150000000 Al
   0.5477215925000001    0.3563316850000000    0.0477215925000001 Al
   0.8563316850000000    0.0477215925000001    0.0477215925000001 Al
   0.5477215925000001    0.0477215925000001    0.3563316850000000 Al
   0.7966184350000001    0.3904123899999999    0.2033815649999999 Al
   0.8904123899999999    0.2966184350000001    0.2033815649999999 Al
   0.7966184350000001    0.2966184350000001    0.1095876100000002 Al
   0.7966184350000001    0.1095876100000001    0.2966184350000001 Al
   0.8904123899999999    0.2033815649999999    0.2966184350000001 Al
   0.7966184350000001    0.2033815649999999    0.3904123899999998 Al
   0.7033815649999999    0.3904123899999999    0.2966184350000001 Al
   0.6095876100000001    0.2966184350000001    0.2966184350000001 Al
   0.7033815649999999    0.2966184350000001    0.3904123899999998 Al
   0.7033815649999999    0.1095876100000001    0.2033815649999999 Al
   0.6095876100000001    0.2033815649999999    0.2033815649999999 Al
   0.7033815649999999    0.2033815649999999    0.1095876100000002 Al
   0.9533815649999999    0.8595876100000001    0.5466184350000001 Al
   0.8595876100000001    0.9533815649999999    0.5466184350000001 Al
   0.9533815649999999    0.9533815649999999    0.6404123899999998 Al
   0.9533815649999999    0.1404123899999998    0.4533815649999999 Al
   0.8595876100000001    0.0466184350000001    0.4533815649999999 Al
   0.9533815649999999    0.0466184350000001    0.3595876100000002 Al
   0.5466184350000001    0.8595876100000001    0.9533815649999999 Al
   0.6404123899999998    0.9533815649999999    0.9533815649999999 Al
   0.5466184350000001    0.9533815649999999    0.8595876100000001 Al
   0.5466184350000001    0.1404123899999998    0.0466184350000001 Al
   0.6404123899999998    0.0466184350000001    0.0466184350000001 Al
   0.5466184350000001    0.0466184350000001    0.1404123899999998 Al
   0.7977215925000001    0.1063316850000000    0.7022784074999999 Al
   0.6063316850000000    0.2977215925000001    0.7022784074999999 Al
   0.7977215925000001    0.2977215925000001    0.8936683150000000 Al
   0.7977215925000001    0.3936683150000000    0.7977215925000001 Al
   0.6063316850000000    0.2022784074999999    0.7977215925000001 Al
   0.7977215925000001    0.2022784074999999    0.6063316850000000 Al
   0.7022784074999999    0.1063316850000000    0.7977215925000001 Al
   0.8936683150000000    0.2977215925000001    0.7977215925000001 Al
   0.7022784074999999    0.2977215925000001    0.6063316850000000 Al
   0.7022784074999999    0.3936683150000000    0.7022784074999999 Al
   0.8936683150000000    0.2022784074999999    0.7022784074999999 Al
   0.7022784074999999    0.2022784074999999    0.8936683150000000 Al
   0.9522784074999999    0.1436683150000000    0.0477215925000001 Al
   0.6436683150000000    0.4522784074999999    0.0477215925000001 Al
   0.9522784074999999    0.4522784074999999    0.3563316850000000 Al
   0.9522784074999999    0.8563316850000000    0.9522784074999999 Al
   0.6436683150000000    0.5477215925000001    0.9522784074999999 Al
   0.9522784074999999    0.5477215925000001    0.6436683150000000 Al
   0.5477215925000001    0.1436683150000000    0.4522784074999999 Al
   0.8563316850000000    0.4522784074999999    0.4522784074999999 Al
   0.5477215925000001    0.4522784074999999    0.1436683150000000 Al
   0.5477215925000001    0.8563316850000000    0.5477215925000001 Al
   0.8563316850000000    0.5477215925000001    0.5477215925000001 Al
   0.5477215925000001    0.5477215925000001    0.8563316850000000 Al
   0.7966184350000001    0.8904123899999999    0.7033815649999999 Al
   0.8904123899999999    0.7966184350000001    0.7033815649999999 Al
   0.7966184350000001    0.7966184350000001    0.6095876100000001 Al
   0.7966184350000001    0.6095876100000001    0.7966184350000001 Al
   0.8904123899999999    0.7033815649999999    0.7966184350000001 Al
   0.7966184350000001    0.7033815649999999    0.8904123899999999 Al
   0.7033815649999999    0.8904123899999999    0.7966184350000001 Al
   0.6095876100000001    0.7966184350000001    0.7966184350000001 Al
   0.7033815649999999    0.7966184350000001    0.8904123899999999 Al
   0.7033815649999999    0.6095876100000001    0.7033815649999999 Al
   0.6095876100000001    0.7033815649999999    0.7033815649999999 Al
   0.7033815649999999    0.7033815649999999    0.6095876100000001 Al
   0.9533815649999999    0.3595876100000002    0.0466184350000001 Al
   0.8595876100000001    0.4533815649999999    0.0466184350000001 Al
   0.9533815649999999    0.4533815649999999    0.1404123899999998 Al
   0.9533815649999999    0.6404123899999998    0.9533815649999999 Al
   0.8595876100000001    0.5466184350000001    0.9533815649999999 Al
   0.9533815649999999    0.5466184350000001    0.8595876100000001 Al
   0.5466184350000001    0.3595876100000002    0.4533815649999999 Al
   0.6404123899999998    0.4533815649999999    0.4533815649999999 Al
   0.5466184350000001    0.4533815649999999    0.3595876100000001 Al
   0.5466184350000001    0.6404123899999998    0.5466184350000001 Al
   0.6404123899999998    0.5466184350000001    0.5466184350000001 Al
   0.5466184350000001    0.5466184350000001    0.6404123899999999 Al
   0.2516817850000000    0.9137466024999999    0.0862533975000001 Cu
   0.4137466024999998    0.9137466024999999    0.2483182150000000 Cu
   0.4137466024999998    0.7516817849999999    0.0862533975000001 Cu
   0.2516817850000000    0.0862533975000001    0.9137466024999999 Cu
   0.4137466024999999    0.0862533975000001    0.7516817849999999 Cu
   0.4137466024999999    0.2483182150000000    0.9137466024999999 Cu
   0.2483182150000000    0.9137466024999999    0.4137466024999998 Cu
   0.0862533975000001    0.9137466024999999    0.2516817850000000 Cu
   0.0862533975000001    0.7516817849999999    0.4137466024999998 Cu
   0.2483182150000000    0.0862533975000001    0.5862533975000001 Cu
   0.0862533975000001    0.0862533975000001    0.7483182150000001 Cu
   0.0862533975000001    0.2483182150000000    0.5862533975000001 Cu
   0.4983182150000000    0.8362533975000001    0.1637466024999998 Cu
   0.3362533975000001    0.8362533975000001    0.0016817849999999 Cu
   0.3362533975000001    0.9983182150000001    0.1637466024999998 Cu
   0.4983182150000000    0.1637466024999999    0.8362533975000001 Cu
   0.3362533975000001    0.1637466024999999    0.9983182150000001 Cu
   0.3362533975000001    0.0016817849999999    0.8362533975000001 Cu
   0.0016817849999999    0.8362533975000001    0.3362533975000001 Cu
   0.1637466024999998    0.8362533975000001    0.4983182150000000 Cu
   0.1637466024999999    0.9983182150000001    0.3362533975000001 Cu
   0.0016817849999999    0.1637466024999999    0.6637466024999998 Cu
   0.1637466024999999    0.1637466024999998    0.5016817849999999 Cu
   0.1637466024999998    0.0016817849999999    0.6637466024999999 Cu
   0.2516817850000000    0.4137466024999998    0.5862533975000001 Cu
   0.4137466024999998    0.4137466024999998    0.7483182150000001 Cu
   0.4137466024999998    0.2516817849999999    0.5862533975000001 Cu
   0.2516817850000000    0.5862533975000001    0.4137466024999998 Cu
   0.4137466024999999    0.5862533975000001    0.2516817849999999 Cu
   0.4137466024999999    0.7483182150000001    0.4137466024999998 Cu
   0.2483182150000000    0.4137466024999998    0.9137466024999998 Cu
   0.0862533975000001    0.4137466024999998    0.7516817849999999 Cu
   0.0862533975000001    0.2516817849999999    0.9137466024999998 Cu
   0.2483182150000000    0.5862533975000001    0.0862533975000002 Cu
   0.0862533975000001    0.5862533975000001    0.2483182150000001 Cu
   0.0862533975000001    0.7483182150000001    0.0862533975000002 Cu
   0.4983182150000000    0.3362533975000002    0.6637466024999998 Cu
   0.3362533975000001    0.3362533975000002    0.5016817849999999 Cu
   0.3362533975000001    0.4983182150000001    0.6637466024999998 Cu
   0.4983182150000000    0.6637466024999999    0.3362533975000002 Cu
   0.3362533975000001    0.6637466024999999    0.4983182150000001 Cu
   0.3362533975000001    0.5016817849999999    0.3362533975000002 Cu
   0.0016817849999999    0.3362533975000002    0.8362533975000001 Cu
   0.1637466024999998    0.3362533975000002    0.9983182150000001 Cu
   0.1637466024999999    0.4983182150000001    0.8362533975000001 Cu
   0.0016817849999999    0.6637466024999999    0.1637466024999998 Cu
   0.1637466024999999    0.6637466024999998    0.0016817849999999 Cu
   0.1637466024999998    0.5016817849999999    0.1637466024999998 Cu
   0.7516817849999999    0.9137466024999999    0.5862533975000001 Cu
   0.9137466024999998    0.9137466024999999    0.7483182150000001 Cu
   0.9137466024999998    0.7516817849999999    0.5862533975000001 Cu
   0.7516817849999999    0.0862533975000001    0.4137466024999998 Cu
   0.9137466024999999    0.0862533975000001    0.2516817849999999 Cu
   0.9137466024999999    0.2483182150000000    0.4137466024999998 Cu
   0.7483182150000001    0.9137466024999999    0.9137466024999998 Cu
   0.5862533975000001    0.9137466024999999    0.7516817849999999 Cu
   0.5862533975000001    0.7516817849999999    0.9137466024999998 Cu
   0.7483182150000001    0.0862533975000001    0.0862533975000002 Cu
   0.5862533975000001    0.0862533975000001    0.2483182150000001 Cu
   0.5862533975000001    0.2483182150000000    0.0862533975000002 Cu
   0.9983182150000001    0.8362533975000001    0.6637466024999998 Cu
   0.8362533975000001    0.8362533975000001    0.5016817849999999 Cu
   0.8362533975000001    0.9983182150000001    0.6637466024999998 Cu